Data path: /scratch/opt/lxu/CFLG/benchmarks/random_B
Instance: r_25_0.1_36.txt
Result path: /scratch/opt/lxu/CFLG/results/random_B
Solver: Gurobi
Time limit: 7200
Formulation: LEFPAD
Cover: Small
julia --project=. src/main.jl /scratch/opt/lxu/CFLG/benchmarks/random_B r_25_0.1_36.txt /scratch/opt/lxu/CFLG/results/random_B Gurobi 7200 LEFPAD Small
The latest version of Julia in the `release` channel is 1.11.6+0.x64.linux.gnu. You currently have `1.11.4+0.x64.linux.gnu` installed. Run:

  juliaup update

in your terminal shell to install Julia 1.11.6+0.x64.linux.gnu and update the `release` channel to that version.
/scratch/opt/lxu/CFLG/benchmarks/random_B Gurobi 7200.0 /scratch/opt/lxu/CFLG/results/random_B r_25_0.1_36.txt LEFPAD Small
/scratch/opt/lxu/CFLG/benchmarks/random_B/r_25_0.1_36.txt

 read graph
data loaded


after absorb:20 25

max_piece:10
problem_graph/original graph: node: 22/25 edge: 33/36 dlt: 0.18152822008819772 break_avg_len: 0.7921231422030445 break_max_len: 1.8121641470128105Vbar/V, Ebar/E(19, 22, 30, 33)
Set parameter TokenServer to value "solice01.zib.de"
Set parameter Threads to value 1
Set parameter OutputFlag to value 1
Gurobi Optimizer version 12.0.1 build v12.0.1rc0 (linux64 - "Debian GNU/Linux 12 (bookworm)")

CPU model: Intel(R) Xeon(R) Gold 5222 CPU @ 3.80GHz, instruction set [SSE2|AVX|AVX2|AVX512]
Thread count: 8 physical cores, 16 logical processors, using up to 1 threads

Non-default parameters:
Threads  1

Optimize a model with 55 rows, 99 columns and 165 nonzeros
Model fingerprint: 0xae6a0246
Coefficient statistics:
  Matrix range     [1e+00, 1e+00]
  Objective range  [1e+00, 1e+00]
  Bounds range     [1e+00, 1e+00]
  RHS range        [1e+00, 1e+00]
Presolve removed 10 rows and 12 columns
Presolve time: 0.00s
Presolved: 45 rows, 87 columns, 143 nonzeros

Iteration    Objective       Primal Inf.    Dual Inf.      Time
       0    3.2000000e+01   1.800000e+01   0.000000e+00      0s
      41    1.9000000e+01   0.000000e+00   0.000000e+00      0s

Solved in 41 iterations and 0.00 seconds (0.00 work units)
Optimal objective  1.900000000e+01

User-callback calls 120, time in user-callback 0.00 sec
elapsed CPU time: 1.013419 seconds
Set parameter TokenServer to value "solice01.zib.de"
Set parameter Threads to value 1
Set parameter OutputFlag to value 1
Set parameter MIPGap to value 0.0001
Set parameter TimeLimit to value 7198.986581

 more cuts: false 0.18152822008819772 false
is_attach:trueformulation:LEFPAD26 7 5

 model loaded

Gurobi Optimizer version 12.0.1 build v12.0.1rc0 (linux64 - "Debian GNU/Linux 12 (bookworm)")

CPU model: Intel(R) Xeon(R) Gold 5222 CPU @ 3.80GHz, instruction set [SSE2|AVX|AVX2|AVX512]
Thread count: 8 physical cores, 16 logical processors, using up to 1 threads

Non-default parameters:
TimeLimit  7198.986581
Threads  1

Optimize a model with 630 rows, 415 columns and 1425 nonzeros
Model fingerprint: 0x9eb7c64b
Variable types: 186 continuous, 229 integer (229 binary)
Coefficient statistics:
  Matrix range     [2e-07, 2e+00]
  Objective range  [1e+00, 1e+00]
  Bounds range     [2e-02, 2e+00]
  RHS range        [2e-02, 2e+00]
Presolve removed 360 rows and 132 columns
Presolve time: 0.00s
Presolved: 270 rows, 283 columns, 921 nonzeros
Variable types: 162 continuous, 121 integer (121 binary)
Found heuristic solution: objective 81.0000000
Found heuristic solution: objective 78.0000000

Root relaxation: objective 5.649991e+01, 305 iterations, 0.00 seconds (0.00 work units)

    Nodes    |    Current Node    |     Objective Bounds      |     Work
 Expl Unexpl |  Obj  Depth IntInf | Incumbent    BestBd   Gap | It/Node Time

     0     0   56.49991    0   76   78.00000   56.49991  27.6%     -    0s
H    0     0                      77.0000000   56.49991  26.6%     -    0s
     0     0   61.22752    0   83   77.00000   61.22752  20.5%     -    0s
H    0     0                      70.0000000   61.23274  12.5%     -    0s
H    0     0                      68.0000000   61.23274  10.0%     -    0s
     0     0   61.41505    0   82   68.00000   61.41505  9.68%     -    0s
     0     0   61.43191    0   82   68.00000   61.43191  9.66%     -    0s
     0     0   61.43258    0   82   68.00000   61.43258  9.66%     -    0s
     0     0   61.93796    0   74   68.00000   61.93796  8.91%     -    0s
     0     0   61.96384    0   75   68.00000   61.96384  8.88%     -    0s
     0     0   61.97815    0   74   68.00000   61.97815  8.86%     -    0s
     0     0   61.97829    0   74   68.00000   61.97829  8.86%     -    0s
     0     0   62.21759    0   75   68.00000   62.21759  8.50%     -    0s
H    0     0                      67.0000000   62.23184  7.12%     -    0s
     0     0   62.25210    0   88   67.00000   62.25210  7.09%     -    0s
     0     0   62.25969    0   87   67.00000   62.25969  7.08%     -    0s
     0     0   62.26005    0   88   67.00000   62.26005  7.07%     -    0s
     0     0   62.38951    0   85   67.00000   62.38951  6.88%     -    0s
     0     0   62.40749    0   87   67.00000   62.40749  6.85%     -    0s
     0     0   62.41087    0   87   67.00000   62.41087  6.85%     -    0s
     0     0   62.45072    0   81   67.00000   62.45072  6.79%     -    0s
     0     0   62.46568    0   88   67.00000   62.46568  6.77%     -    0s
     0     0   62.46568    0   87   67.00000   62.46568  6.77%     -    0s
     0     0   62.48223    0   87   67.00000   62.48223  6.74%     -    0s
     0     0   62.48369    0   87   67.00000   62.48369  6.74%     -    0s
     0     2   62.48369    0   87   67.00000   62.48369  6.74%     -    0s
H 1068   428                      66.0000000   63.48863  3.81%  38.1    2s
  2991   302   64.73678   27   64   66.00000   64.30654  2.57%  39.2    5s

Cutting planes:
  Gomory: 10
  Cover: 45
  Implied bound: 19
  Clique: 1
  MIR: 90
  Flow cover: 57
  GUB cover: 3
  Inf proof: 1
  Zero half: 2
  RLT: 14
  Relax-and-lift: 1
  BQP: 1

Explored 4384 nodes (171918 simplex iterations) in 6.99 seconds (5.69 work units)
Thread count was 1 (of 16 available processors)

Solution count 7: 66 67 68 ... 81

Optimal solution found (tolerance 1.00e-04)
Best objective 6.600000000000e+01, best bound 6.600000000000e+01, gap 0.0000%

User-callback calls 12344, time in user-callback 0.01 sec

 sepatime0 0 0
66.0
Stat(MathOptInterface.OPTIMAL, 66.0, 66.0, 0.0, 0.0, 1.013419, 6.9905970096588135, 4384, Main.CFLG.LEFPAD, "", #undef)
